# Data VRPwTW

set NODE :=	MoscowDepot	Tver_ATAKo	Tver_ATAKmk	Tver_Magnit	Tver_LENTA;
set VEHICLES:= 1;

param L:= 2;
param travel_cost = 75;
param waiting_cost = 31;
param working_limit = 8;


param service_available:
			1	2	3	4	5	6	7	8	9	10	11	12	13:=
MoscowDepot		1	1	1	1	1	1	1	1	1	1	1	1	1
Tver_ATAKo		1	0	1	0	1	0	0	1	0	1	1	1	0
Tver_ATAKmk		1	0	1	0	1	0	0	1	0	1	0	1	0
Tver_Magnit		1	1	1	1	1	0	0	1	1	1	1	1	0
Tver_LENTA		1	1	1	1	1	0	0	1	1	1	1	1	0;


param timewind:=
[MoscowDepot,*,*]:		1	2	3	4	5	6	7	8	9	10	11	12	13:=
			1	0	24	48	72	96	120	144	168	192	216	240	264	288
			2	24	48	72	96	120	144	168	192	216	240	264	288	312
[Tver_ATAKo,*,*]:     		1	2	3	4	5	6	7	8	9	10	11	12	13:=
       			1	7	31	55	79	103	127	151	175	199	223	247	271	295
        		2	16	40	64	88	112	136	160	184	208	232	256	280	304
[Tver_ATAKmk,*,*]:    		1	2	3	4	5	6	7	8	9	10	11	12	13:=
        		1    	7	31	55	79	103	127	151	175	199	223	247	271	295
        		2    	16	40	64	88	112	136	160	184	208	232	256	280	304
[Tver_Magnit,*,*]:		1	2	3	4	5	6	7	8	9	10	11	12	13:=
         		1    	8	32	56	80	104	128	152	176	200	224	248	272	296
       			2    	14	38	62	86	110	134	158	182	206	230	254	278	302
[Tver_LENTA,*,*]:     		1	2	3	4	5	6	7	8	9	10	11	12	13:=
        		1    	8	32	56	80	104	128	152	176	200	224	248	272	296
        		2    	17	41	65	89	113	137	161	185	209	233	257	281	305;

set CUSTTIMEWINDOWS[MoscowDepot]:=              1	2	3	4	5	6	7	8	9	10	11	12	13;
set CUSTTIMEWINDOWS[Tver_ATAKo]:=     		1	2	3	4	5	6	7	8	9	10	11	12	13;
set CUSTTIMEWINDOWS[Tver_ATAKmk]:=    		1	2	3	4	5	6	7	8	9	10	11	12	13;
set CUSTTIMEWINDOWS[Tver_Magnit]:=       	1	2	3	4	5	6	7	8	9	10	11	12	13;
set CUSTTIMEWINDOWS[Tver_LENTA]:=		1	2	3	4	5	6	7	8	9	10	11	12	13;

param maxduration:=
1 100;

param capacity :=
1 20000;


param travel_time:
		MoscowDepot	Tver_ATAKo	Tver_ATAKmk	Tver_Magnit	Tver_LENTA:=
MoscowDepot	.		2.41		2.49		2.62		2.37
Tver_ATAKo	2.43		.		0.23		0.29		0.1
Tver_ATAKmk	2.52		0.22		.		0.27		0.25
Tver_Magnit	2.66		0.33		0.31		.		0.31
Tver_LENTA	2.4		0.09		0.24		0.27		.;


param:			demand	service_time:=
MoscowDepot		0	0.2
Tver_ATAKo		35	0.2
Tver_ATAKmk		125	0.2
Tver_Magnit		3500	0.2
Tver_LENTA		1847.6	0.2;
